qbf_easy_train/easy_3024_SAT.qdimacs
p cnf 29 79
a 13 26 5 0
e 1 2 3 4 6 7 8 9 10 11 12 14 15 16 17 18 19 20 21 22 23 24 25 27 28 29 0
-2 -3 -4 0
2 3 -4 0
-2 3 4 0
2 -3 4 0
1 4 -5 0
-1 -4 -5 0
1 -4 5 0
-1 4 5 0
-7 -6 -8 0
7 6 -8 0
-7 6 8 0
7 -6 8 0
-9 -6 0
-9 8 0
6 -8 9 0
10 -8 0
10 -7 0
8 7 -10 0
-11 -9 0
-11 -10 0
9 10 11 0
-12 -13 -14 0
12 13 -14 0
-12 13 14 0
12 -13 14 0
-15 14 0
-15 8 0
-14 -8 15 0
-11 15 -16 0
11 -15 -16 0
-11 -15 16 0
11 15 16 0
17 -5 0
17 -16 0
5 16 -17 0
-18 3 0
-18 -8 0
-3 8 18 0
19 10 0
19 8 0
-10 -8 -19 0
-20 -19 0
-20 14 0
19 -14 20 0
21 -14 0
21 19 0
14 -19 -21 0
20 21 -22 0
-20 -21 -22 0
20 -21 22 0
-20 21 22 0
-23 13 0
-23 -1 0
-13 1 23 0
24 -13 0
24 23 0
13 -23 -24 0
24 25 -26 0
-24 -25 -26 0
24 -25 26 0
-24 25 26 0
-27 22 0
-27 -26 0
-22 26 27 0
-18 27 -28 0
18 -27 -28 0
-18 -27 28 0
18 27 28 0
-29 17 0
-29 -28 0
-17 28 29 0
4 25 -19 20 22 0
13 9 29 -6 -28 -8 0
24 -27 -3 6 0
-10 26 -28 25 7 20 11 -2 0
-24 -25 -11 -2 -19 -27 14 -17 0
-29 10 -1 -21 -8 -24 0
-10 18 -21 -17 -19 1 0
29 0
