sat_easy_train/easy_3024_SAT.dimacs
p cnf 127 433
3 -1 0
3 2 0
1 -2 -3 0
4 5 -6 0
-4 -5 -6 0
4 -5 6 0
-4 5 6 0
8 -6 0
8 -7 0
6 7 -8 0
9 8 0
9 -6 0
-8 6 -9 0
3 -9 -10 0
-3 9 -10 0
3 9 10 0
-3 -9 10 0
12 -10 0
12 11 0
10 -11 -12 0
-11 -14 -15 0
11 14 -15 0
-11 14 15 0
11 -14 15 0
-15 2 -16 0
15 -2 -16 0
-15 -2 16 0
15 2 16 0
-17 -13 0
-17 16 0
13 -16 17 0
12 17 -18 0
-12 -17 -18 0
12 -17 18 0
-12 17 18 0
19 6 0
19 13 0
-6 -13 -19 0
-4 -20 -21 0
4 20 -21 0
-4 20 21 0
4 -20 21 0
23 -6 0
23 -22 0
6 22 -23 0
7 -23 -24 0
-7 23 -24 0
7 23 24 0
-7 -23 24 0
-25 -9 0
-25 24 0
9 -24 25 0
26 21 0
26 25 0
-21 -25 -26 0
-27 19 0
-27 -26 0
-19 26 27 0
-28 18 0
-28 27 0
-18 -27 28 0
-29 -22 0
-29 -7 0
22 7 29 0
-29 -19 -30 0
29 19 -30 0
-29 19 30 0
29 -19 30 0
31 30 0
31 29 0
-30 -29 -31 0
28 -31 -32 0
-28 31 -32 0
28 31 32 0
-28 -31 32 0
35 -5 0
35 34 0
5 -34 -35 0
-36 -33 0
-36 35 0
33 -35 36 0
-5 -35 -37 0
5 35 -37 0
-5 35 37 0
5 -35 37 0
38 36 0
38 37 0
-36 -37 -38 0
3 34 -39 0
-3 -34 -39 0
3 -34 39 0
-3 34 39 0
-4 -20 -40 0
4 20 -40 0
-4 20 40 0
4 -20 40 0
-41 -40 0
-41 16 0
40 -16 41 0
-42 -39 0
-42 41 0
39 -41 42 0
-2 -35 -43 0
2 35 -43 0
-2 35 43 0
2 -35 43 0
44 42 0
44 43 0
-42 -43 -44 0
13 -41 -45 0
-13 41 -45 0
13 41 45 0
-13 -41 45 0
-46 -40 0
-46 -33 0
40 33 46 0
47 45 0
47 46 0
-45 -46 -47 0
44 47 -48 0
-44 -47 -48 0
44 -47 48 0
-44 47 48 0
-49 -1 0
-49 -6 0
1 6 49 0
50 43 0
50 -6 0
-43 6 -50 0
51 49 0
51 50 0
-49 -50 -51 0
51 49 -52 0
-51 -49 -52 0
51 -49 52 0
-51 49 52 0
53 48 0
53 -52 0
-48 52 -53 0
54 38 0
54 -53 0
-38 53 -54 0
-55 32 0
-55 54 0
-32 -54 55 0
57 -56 0
57 -13 0
56 13 -57 0
-57 -10 -58 0
57 10 -58 0
-57 10 58 0
57 -10 58 0
59 33 0
59 3 0
-33 -3 -59 0
59 9 -60 0
-59 -9 -60 0
59 -9 60 0
-59 9 60 0
-7 30 -61 0
7 -30 -61 0
-7 -30 61 0
7 30 61 0
-61 3 -62 0
61 -3 -62 0
-61 -3 62 0
61 3 62 0
-63 -35 0
-63 49 0
35 -49 63 0
-64 -6 0
-64 61 0
6 -61 64 0
-63 -64 -65 0
63 64 -65 0
-63 64 65 0
63 -64 65 0
62 -65 -66 0
-62 65 -66 0
62 65 66 0
-62 -65 66 0
60 66 -67 0
-60 -66 -67 0
60 -66 67 0
-60 66 67 0
58 -67 -68 0
-58 67 -68 0
58 67 68 0
-58 -67 68 0
69 -55 0
69 68 0
55 -68 -69 0
70 12 0
70 36 0
-12 -36 -70 0
71 -6 0
71 19 0
6 -19 -71 0
72 16 0
72 -71 0
-16 71 -72 0
-70 72 -73 0
70 -72 -73 0
-70 -72 73 0
70 72 73 0
74 1 0
74 -37 0
-1 37 -74 0
75 57 0
75 -2 0
-57 2 -75 0
76 74 0
76 75 0
-74 -75 -76 0
-77 6 0
-77 6 0
-6 77 0
-76 77 -78 0
76 -77 -78 0
-76 -77 78 0
76 77 78 0
73 -78 -79 0
-73 78 -79 0
73 78 79 0
-73 -78 79 0
80 -11 0
80 35 0
11 -35 -80 0
-81 40 0
-81 35 0
-40 -35 81 0
1 81 -82 0
-1 -81 -82 0
1 -81 82 0
-1 81 82 0
-19 -14 -83 0
19 14 -83 0
-19 14 83 0
19 -14 83 0
-30 -16 -84 0
30 16 -84 0
-30 16 84 0
30 -16 84 0
83 -84 -85 0
-83 84 -85 0
83 84 85 0
-83 -84 85 0
86 81 0
86 30 0
-81 -30 -86 0
-87 -85 0
-87 -86 0
85 86 87 0
-88 22 0
-88 59 0
-22 -59 88 0
-88 7 -89 0
88 -7 -89 0
-88 -7 89 0
88 7 89 0
-90 17 0
-90 59 0
-17 -59 90 0
-91 -19 0
-91 -29 0
19 29 91 0
-92 -90 0
-92 91 0
90 -91 92 0
-89 -92 -93 0
89 92 -93 0
-89 92 93 0
89 -92 93 0
-87 -93 -94 0
87 93 -94 0
-87 93 94 0
87 -93 94 0
-82 94 -95 0
82 -94 -95 0
-82 -94 95 0
82 94 95 0
-96 -80 0
-96 95 0
80 -95 96 0
97 79 0
97 96 0
-79 -96 -97 0
-100 -99 0
-100 -30 0
99 30 100 0
-101 -100 0
-101 -9 0
100 9 101 0
102 98 0
102 101 0
-98 -101 -102 0
103 6 0
103 84 0
-6 -84 -103 0
104 40 0
104 -14 0
-40 14 -104 0
-105 104 0
-105 -37 0
-104 37 105 0
103 105 -106 0
-103 -105 -106 0
103 -105 106 0
-103 105 106 0
-107 102 0
-107 -106 0
-102 106 107 0
108 97 0
108 107 0
-97 -107 -108 0
-109 -35 0
-109 83 0
35 -83 109 0
110 36 0
110 -101 0
-36 101 -110 0
-111 -83 0
-111 12 0
83 -12 111 0
-81 -111 -112 0
81 111 -112 0
-81 111 112 0
81 -111 112 0
113 -110 0
113 -112 0
110 112 -113 0
114 -109 0
114 -113 0
109 113 -114 0
115 -3 0
115 8 0
3 -8 -115 0
-116 114 0
-116 115 0
-114 -115 116 0
35 -117 -118 0
-35 117 -118 0
35 117 118 0
-35 -117 118 0
-119 -49 0
-119 -118 0
49 118 119 0
-120 104 0
-120 22 0
-104 -22 120 0
-120 -9 -121 0
120 9 -121 0
-120 9 121 0
120 -9 121 0
-122 119 0
-122 -121 0
-119 121 122 0
15 24 -123 0
-15 -24 -123 0
15 -24 123 0
-15 24 123 0
-122 123 -124 0
122 -123 -124 0
-122 -123 124 0
122 123 124 0
-125 -116 0
-125 124 0
116 -124 125 0
108 125 -126 0
-108 -125 -126 0
108 -125 126 0
-108 125 126 0
69 -126 -127 0
-69 126 -127 0
69 126 127 0
-69 -126 127 0
62 106 -80 -39 -59 0
10 2 -55 0
-118 57 71 45 10 0
32 82 -118 114 0
-111 -37 8 56 0
-69 -24 -77 0
-90 -65 14 26 0
17 -97 -68 -48 0
87 9 19 -93 0
1 -124 73 -70 46 89 0
40 7 81 -25 -83 0
-19 -58 -114 -90 111 0
70 -125 0
54 -67 49 0
-113 -60 -51 111 66 -29 0
-3 114 -115 33 -113 0
13 -52 -79 0
6 105 0
-42 -82 -95 90 -53 -15 0
26 90 108 -10 70 0
49 68 40 0
94 -120 -119 75 0
-80 -25 120 0
115 -114 -117 16 7 0
-122 21 -45 53 0
-99 -112 -77 18 0
-29 17 -10 35 0
-33 -53 0
-85 38 -37 0
-125 -24 0
-24 62 0
-79 -103 0
123 -91 3 -67 0
-1 -26 0
79 54 -75 29 -20 0
37 -72 -11 0
31 -26 -44 0
-70 -108 0
116 9 97 126 60 -36 0
-4 -83 104 21 0
16 12 41 -17 1 0
-82 -16 -55 59 0
71 48 -47 83 0
9 63 -4 62 -64 -67 0
-109 -115 -105 0
-71 -3 -9 -24 -1 78 0
94 -4 26 -115 18 49 0
48 -101 -120 0
83 68 0
4 38 -124 0
28 -56 -66 71 78 47 0
17 -114 0
-67 -75 74 -127 -125 0
104 91 97 48 0
26 -123 -79 51 0
55 -80 71 -57 0
127 0
